100
128
15
12
22
34
48
23
54
6
46
31
57
33
26
4
46
16
14
62
20
5
42
38
14
16
9
12
44
18
30
46
41
11
17
8
2
20
50
49
31
41
10
31
30
12
38
18
16
4
22
17
23
29
10
42
50
27
19
17
24
18
52
22
12
13
11
24
44
12
22
2
23
19
11
11
48
16
6
19
12
18
19
26
16
17
32
21
28
22
37
24
56
33
45
1
47
34
1
33
32
62